xc                       pbe
relativistic             atomic_zora scalar
many_body_dispersion     old_hirshfeld=.true.
dry_run
sc_accuracy_eev          0.0001
sc_accuracy_rho          1e-06
sc_accuracy_etot         1e-07
sc_iter_limit            100

species                  Ar
mass                     39.948
nucleus                  18.0
l_hartree                4
cut_pot                  3.5 1.5 1.0
basis_dep_cutoff         0.0001
radial_base              51 5.0
radial_multiplier        1
angular_grids            specified
division                 0.5855 110
division                 0.859 194
division                 0.9692 302
outer_grid               302
valence                  3 s 2.0
valence                  3 p 6.0
ion_occ                  3 s 1.0
ion_occ                  3 p 5.0
ionic                    3 d auto
ionic                    4 p auto
hydro                    3 s 4.5
